%chk=opt_freq.chk
%nproc=6
%mem=20GB
#sp wB97XD/6-311+G(3df) 

Optimizacion  del hoso

0 2
S -0.158843 -0.451008 0.016308
O 1.315132 0.252471 -0.047040
O -1.144636 0.503438 -0.019037
H 1.152521 1.155845 0.270681

