%chk=opt_freq.chk
%nproc=6
%mem=20GB
#sp wB97XD/6-311+G(3df) 

Optimizacion  del hoso

0 2
S -0.138843 -0.472008 0.019308
O 1.310132 0.256471 -0.053040
O -1.188636 0.543438 -0.024037
H 1.254521 1.138845 0.349681

