%chk=opt_freq.chk
%nproc=6
%mem=20GB
#sp wB97XD/6-311+G(3df) 

Optimizacion  del hoso

0 2
S -0.188343 -0.510008 0.019308
O 1.416632 0.313471 -0.052540
O -1.190136 0.560438 -0.021537
H 1.185021 1.198845 0.295681

