%chk=opt_freq.chk
%nproc=6
%mem=20GB
#sp wB97XD/6-311+G(3df) 

Optimizacion  del hoso

0 2
S -0.136843 -0.473008 0.016808
O 1.312632 0.253471 -0.046040
O -1.189136 0.546938 -0.020037
H 1.177521 1.159345 0.268181

