%chk=opt_freq.chk
%nproc=6
%mem=20GB
#sp wB97XD/6-311+G(3df) 

Optimizacion  del hoso

0 2
S -0.130843 -0.470008 0.018308
O 1.320132 0.244471 -0.049040
O -1.199636 0.551438 -0.020037
H 1.033521 1.130845 0.293681

