%chk=opt_freq.chk
%nproc=6
%mem=20GB
#sp wB97XD/6-311+G(3df) 

Optimizacion  del hoso

0 2
S -0.139343 -0.483008 0.017808
O 1.296132 0.265971 -0.047540
O -1.168636 0.554438 -0.021537
H 1.190521 1.167845 0.282681

