%chk=opt_freq.chk
%nproc=6
%mem=20GB
#sp wB97XD/6-311+G(3df) 

Optimizacion  del hoso

0 2
S -0.138843 -0.477008 0.011808
O 1.310132 0.256471 -0.033040
O -1.181136 0.548438 -0.014037
H 1.182021 1.213845 0.124681

