%chk=opt_freq.chk
%nproc=6
%mem=20GB
#sp wB97XD/6-311+G(3df) 

Optimizacion  del hoso

0 2
S -0.139843 -0.492008 0.019308
O 1.282132 0.275471 -0.050040
O -1.151636 0.563438 -0.023037
H 1.155521 1.166845 0.305681

