%chk=opt_freq.chk
%nproc=6
%mem=20GB
#sp wB97XD/6-311+G(3df) 

Optimizacion  del hoso

0 2
S -0.155343 -0.486008 0.017308
O 1.345632 0.275471 -0.047540
O -1.187136 0.550438 -0.020537
H 1.212021 1.178845 0.271681

