%chk=opt_freq.chk
%nproc=6
%mem=20GB
#sp wB97XD/6-311+G(3df) 

Optimizacion  del hoso

0 2
S -0.137343 -0.447008 0.011808
O 1.352132 0.227971 -0.037540
O -1.236636 0.518438 -0.015537
H 1.330521 1.171845 0.190681

