%chk=opt_freq.chk
%nproc=6
%mem=20GB
#sp wB97XD/6-311+G(3df) 

Optimizacion  del hoso

0 2
S -0.136843 -0.438008 0.010308
O 1.366132 0.218471 -0.035040
O -1.253636 0.509438 -0.014037
H 1.365521 1.172845 0.167681

