%chk=opt_freq.chk
%nproc=6
%mem=20GB
#sp wB97XD/6-311+G(3df) 

Optimizacion  del hoso

0 2
S -0.122343 -0.462008 0.015308
O 1.274632 0.237471 -0.042540
O -1.184136 0.540438 -0.019537
H 1.239021 1.158845 0.247681

