%chk=opt_freq.chk
%nproc=6
%mem=20GB
#sp wB97XD/6-311+G(3df) 

Optimizacion  del hoso

0 2
S -0.128843 -0.485508 0.016308
O 1.307632 0.258471 -0.044040
O -1.206136 0.566438 -0.020537
H 1.262021 1.175345 0.254181

