%chk=opt_freq.chk
%nproc=6
%mem=20GB
#sp wB97XD/6-311+G(3df) 

Optimizacion  del hoso

0 2
S -0.138843 -0.471008 0.020808
O 1.310132 0.256471 -0.057040
O -1.190136 0.542438 -0.026037
H 1.269021 1.123845 0.394681

