%chk=opt_freq.chk
%nproc=6
%mem=20GB
#sp wB97XD/6-311+G(3df) 

Optimizacion  del hoso

0 2
S -0.108843 -0.508508 0.016308
O 1.302632 0.262471 -0.042040
O -1.247136 0.608438 -0.021537
H 1.335021 1.188345 0.243181

