%chk=opt_freq.chk
%nproc=6
%mem=20GB
#sp wB97XD/6-311+G(3df) 

Optimizacion  del hoso

0 2
S -0.178843 -0.428008 0.016308
O 1.320132 0.248471 -0.049040
O -1.103636 0.461438 -0.018037
H 1.079521 1.142845 0.281681

