%chk=opt_freq.chk
%nproc=6
%mem=20GB
#sp wB97XD/6-311+G(3df) 

Optimizacion  del hoso

0 2
S -0.138843 -0.478008 0.010308
O 1.310132 0.256471 -0.029040
O -1.179636 0.549438 -0.012037
H 1.167521 1.228845 0.079681

