%chk=opt_freq.chk
%nproc=6
%mem=20GB
#sp wB97XD/6-311+G(3df) 

Optimizacion  del hoso

0 2
S -0.171843 -0.498008 0.018308
O 1.381132 0.294471 -0.050040
O -1.188636 0.555438 -0.021037
H 1.198521 1.188845 0.283681

