%chk=opt_freq.chk
%nproc=6
%mem=20GB
#sp wB97XD/6-311+G(3df) 

Optimizacion  del hoso

0 2
S -0.118843 -0.497008 0.016308
O 1.305132 0.260471 -0.043040
O -1.226636 0.587438 -0.021037
H 1.298521 1.181845 0.248681

