%chk=opt_freq.chk
%nproc=6
%mem=20GB
#sp wB97XD/6-311+G(3df) 

Optimizacion  del hoso

0 2
S -0.132843 -0.471008 0.017808
O 1.317632 0.247471 -0.048040
O -1.196136 0.549938 -0.020037
H 1.081521 1.140345 0.285181

