%chk=opt_freq.chk
%nproc=6
%mem=20GB
#sp wB97XD/6-311+G(3df) 

Optimizacion  del hoso

0 2
S -0.138843 -0.475008 0.014808
O 1.310132 0.256471 -0.041040
O -1.184136 0.546438 -0.018037
H 1.211021 1.183845 0.214681

