%chk=opt_freq.chk
%nproc=6
%mem=20GB
#sp wB97XD/6-311+G(3df) 

Optimizacion  del hoso

0 2
S -0.148843 -0.462508 0.016308
O 1.312632 0.254471 -0.046040
O -1.165136 0.524438 -0.019537
H 1.189021 1.162345 0.265181

