%chk=opt_freq.chk
%nproc=6
%mem=20GB
#sp wB97XD/6-311+G(3df) 

Optimizacion  del hoso

0 2
S -0.140843 -0.475008 0.015808
O 1.307632 0.259471 -0.044040
O -1.182136 0.543938 -0.020037
H 1.273521 1.178345 0.251181

