%chk=opt_freq.chk
%nproc=6
%mem=20GB
#sp wB97XD/6-311+G(3df) 

Optimizacion  del hoso

0 2
S -0.138843 -0.476008 0.013308
O 1.310132 0.256471 -0.037040
O -1.182636 0.547438 -0.016037
H 1.196521 1.198845 0.169681

