%chk=opt_freq.chk
%nproc=6
%mem=20GB
#sp wB97XD/6-311+G(3df) 

Optimizacion  del hoso

0 2
S -0.204843 -0.522008 0.020308
O 1.452132 0.332471 -0.055040
O -1.191636 0.565438 -0.022037
H 1.171521 1.208845 0.307681

