%chk=opt_freq.chk
%nproc=6
%mem=20GB
#sp wB97XD/6-311+G(3df) 

Optimizacion  del hoso

0 2
S -0.105843 -0.450008 0.014308
O 1.239132 0.218471 -0.040040
O -1.182636 0.535438 -0.019037
H 1.252521 1.148845 0.235681

