%chk=opt_freq.chk
%nproc=6
%mem=20GB
#sp wB97XD/6-311+G(3df) 

Optimizacion  del hoso

0 2
S -0.146843 -0.478008 0.014308
O 1.300132 0.268471 -0.041040
O -1.171636 0.539438 -0.020037
H 1.417521 1.206845 0.225681

