%chk=opt_freq.chk
%nproc=6
%mem=20GB
#sp wB97XD/6-311+G(3df) 

Optimizacion  del hoso

0 2
S -0.140843 -0.510008 0.022308
O 1.254132 0.294471 -0.055040
O -1.117636 0.581438 -0.026037
H 1.085521 1.164845 0.351681

