%chk=opt_freq.chk
%nproc=6
%mem=20GB
#sp wB97XD/6-311+G(3df) 

Optimizacion  del hoso

0 2
S -0.144843 -0.477008 0.014808
O 1.302632 0.265471 -0.042040
O -1.175136 0.540938 -0.020037
H 1.369521 1.197345 0.234181

