%chk=opt_freq.chk
%nproc=6
%mem=20GB
#sp wB97XD/6-311+G(3df) 

Optimizacion  del hoso

0 2
S -0.140343 -0.501008 0.020808
O 1.268132 0.284971 -0.052540
O -1.134636 0.572438 -0.024537
H 1.120521 1.165845 0.328681

