%chk=opt_freq.chk
%nproc=6
%mem=20GB
#sp wB97XD/6-311+G(3df) 

Optimizacion  del hoso

0 2
S -0.138843 -0.474008 0.016308
O 1.310132 0.262471 -0.043040
O -1.185636 0.545438 -0.020037
H 1.232521 1.073845 0.228681

