%chk=opt_freq.chk
%nproc=6
%mem=20GB
#sp wB97XD/6-311+G(3df) 

Optimizacion  del hoso

0 2
S -0.134843 -0.472008 0.017308
O 1.315132 0.250471 -0.047040
O -1.192636 0.548438 -0.020037
H 1.129521 1.149845 0.276681

