%chk=opt_freq.chk
%nproc=6
%mem=20GB
#sp wB97XD/6-311+G(3df) 

Optimizacion  del hoso

0 2
S -0.168843 -0.439508 0.016308
O 1.317632 0.250471 -0.048040
O -1.124136 0.482438 -0.018537
H 1.116021 1.149345 0.276181

