%chk=opt_freq.chk
%nproc=6
%mem=20GB
#sp wB97XD/6-311+G(3df) 

Optimizacion  del hoso

0 2
S -0.138343 -0.465008 0.014808
O 1.324132 0.246971 -0.042540
O -1.202636 0.536438 -0.018537
H 1.260521 1.169845 0.236681

