%chk=opt_freq.chk
%nproc=6
%mem=20GB
#sp wB97XD/6-311+G(3df) 

Optimizacion  del hoso

0 2
S -0.072843 -0.426008 0.012308
O 1.168132 0.180471 -0.035040
O -1.179636 0.525438 -0.018037
H 1.279521 1.128845 0.211681

