%chk=opt_freq.chk
%nproc=6
%mem=20GB
#sp wB97XD/6-311+G(3df) 

Optimizacion  del hoso

0 2
S -0.137843 -0.456008 0.013308
O 1.338132 0.237471 -0.040040
O -1.219636 0.527438 -0.017037
H 1.295521 1.170845 0.213681

