%chk=opt_freq.chk
%nproc=6
%mem=20GB
#sp wB97XD/6-311+G(3df) 

Optimizacion  del hoso

0 2
S -0.138843 -0.470008 0.022308
O 1.310132 0.256471 -0.061040
O -1.191636 0.541438 -0.028037
H 1.283521 1.108845 0.439681

