%chk=opt_freq.chk
%nproc=6
%mem=20GB
#sp wB97XD/6-311+G(3df) 

Optimizacion  del hoso

0 2
S -0.089343 -0.438008 0.013308
O 1.203632 0.199471 -0.037540
O -1.181136 0.530438 -0.018537
H 1.266021 1.138845 0.223681

