%chk=opt_freq.chk
%nproc=6
%mem=20GB
#sp wB97XD/6-311+G(3df) 

Optimizacion  del hoso

0 2
S -0.098843 -0.520008 0.016308
O 1.300132 0.264471 -0.041040
O -1.267636 0.629438 -0.022037
H 1.371521 1.194845 0.237681

