%chk=opt_freq.chk
%nproc=6
%mem=20GB
#sp wB97XD/6-311+G(3df) 

Optimizacion  del hoso

0 2
S -0.142843 -0.476008 0.015308
O 1.305132 0.262471 -0.043040
O -1.178636 0.542438 -0.020037
H 1.321521 1.187845 0.242681

